10J3M/DAT/10J3MNLA-7.dat
10 3
24.6946 609.8233
25.2398 637.0475
21.7526 473.1756
30.6147 937.2599
21.4468 459.9652
26.498 702.144
22.1382 490.0999
23.2534 540.7206
20.5081 420.5822
24.91 620.5081
1963.7754