10J3M/SOL/10J3MNLA-7.sol
solution status: optimal solution found
objective value:                     91.2730655508543
x#1#2                                0.46428551457661 	(obj:0)
x#1#3                                0.53571448542339 	(obj:0)
x#2#1                              0.0402646196073348 	(obj:0)
x#2#2                               0.959735380392665 	(obj:0)
x#3#1                                               1 	(obj:0)
x#4#3                               0.999999887946646 	(obj:0)
x#5#1                                               1 	(obj:0)
x#6#2                                               1 	(obj:0)
x#7#1                               0.198079691715717 	(obj:0)
x#7#3                               0.801920308284283 	(obj:0)
x#8#1                              0.0863929611644129 	(obj:0)
x#8#2                               0.913607038835587 	(obj:0)
x#9#3                                               1 	(obj:0)
x#10#1                                              1 	(obj:0)
z                                    91.2730655508543 	(obj:1)
